6 100 399
0 14 68
1 73 2 8 10
2 13 47 24 77
3 37 44 9 64
4 34 63 19 54
5 58 98 9 4
6 33 42 18 61
7 18 98 9 73
8 24 79 14 33
9 17 28 3 50
10 72 67 14 37
11 78 63 8 26
12 42 48 8 80
13 1 2 13 12
14 2 28 18 60
15 32 82 4 47
16 97 38 24 65
17 39 53 14 59
18 87 1 8 60
19 42 77 18 60
20 83 27 13 69
21 79 92 2 9
22 22 39 9 50
23 58 32 18 21
24 53 84 3 22
25 38 37 24 73
26 63 59 8 58
27 42 88 24 42
28 32 88 14 43
29 38 23 13 55
30 63 32 24 27
31 22 73 23 39
32 88 94 9 74
33 58 78 13 80
34 43 62 14 63
35 73 1 14 11
36 17 32 18 13
37 87 79 24 5
38 12 24 4 54
39 48 53 8 55
40 48 23 13 56
41 7 37 4 28
42 98 77 14 75
43 34 12 18 58
